NAME 
OBJSENSE MAX
ROWS
 N  OBJ
 L  packing[0]
 L  packing[1]
 L  packing[2]
 L  packing[3]
 L  packing[4]
 L  packing[5]
 L  packing[6]
 L  packing[7]
 L  packing[8]
 L  packing[9]
 L  packing[10]
 L  packing[11]
 L  packing[12]
 L  packing[13]
 L  packing[14]
 L  packing[15]
 L  packing[16]
 L  packing[17]
 L  packing[18]
 L  packing[19]
 L  packing[20]
 L  packing[21]
 L  packing[22]
 L  packing[23]
 L  packing[24]
 L  packing[25]
 L  packing[26]
 L  packing[27]
 L  packing[28]
 L  packing[29]
 L  packing[30]
 L  packing[31]
 L  packing[32]
 L  packing[33]
 L  packing[34]
 L  packing[35]
 L  packing[36]
 L  packing[37]
 L  packing[38]
 L  packing[39]
 L  packing[40]
 L  packing[41]
 L  packing[42]
 L  packing[43]
 L  packing[44]
 L  packing[45]
 L  packing[46]
 L  packing[47]
 L  packing[48]
 L  packing[49]
 L  R62     
COLUMNS
    MARKER    'MARKER'                 'INTORG'
    x[1]      OBJ       38
    x[1]      packing[1]  18
    x[1]      packing[2]  67
    x[1]      packing[3]  194
    x[1]      packing[4]  106
    x[1]      packing[5]  186
    x[1]      packing[6]  83
    x[1]      packing[7]  150
    x[1]      packing[8]  2
    x[1]      packing[9]  130
    x[1]      packing[10]  151
    x[1]      packing[11]  178
    x[1]      packing[12]  109
    x[1]      packing[13]  123
    x[1]      packing[14]  87
    x[1]      packing[17]  91
    x[1]      packing[18]  87
    x[1]      packing[19]  48
    x[1]      packing[20]  143
    x[1]      packing[22]  57
    x[1]      packing[23]  165
    x[1]      packing[25]  156
    x[1]      packing[26]  88
    x[1]      packing[27]  39
    x[1]      packing[28]  64
    x[1]      packing[29]  99
    x[1]      packing[30]  128
    x[1]      packing[31]  138
    x[1]      packing[33]  176
    x[1]      packing[34]  143
    x[1]      packing[35]  91
    x[1]      packing[36]  188
    x[1]      packing[37]  77
    x[1]      packing[38]  26
    x[1]      packing[40]  20
    x[1]      packing[41]  109
    x[1]      packing[42]  44
    x[1]      packing[43]  196
    x[1]      packing[44]  160
    x[1]      packing[45]  143
    x[1]      packing[46]  155
    x[1]      packing[48]  134
    x[1]      packing[49]  58
    x[2]      OBJ       83
    x[2]      packing[0]  194
    x[2]      packing[1]  5
    x[2]      packing[2]  164
    x[2]      packing[3]  27
    x[2]      packing[4]  31
    x[2]      packing[5]  183
    x[2]      packing[6]  157
    x[2]      packing[8]  57
    x[2]      packing[9]  90
    x[2]      packing[10]  120
    x[2]      packing[11]  134
    x[2]      packing[12]  30
    x[2]      packing[13]  140
    x[2]      packing[14]  74
    x[2]      packing[15]  102
    x[2]      packing[16]  23
    x[2]      packing[17]  134
    x[2]      packing[18]  155
    x[2]      packing[20]  40
    x[2]      packing[21]  52
    x[2]      packing[22]  125
    x[2]      packing[23]  157
    x[2]      packing[24]  84
    x[2]      packing[25]  141
    x[2]      packing[26]  66
    x[2]      packing[27]  28
    x[2]      packing[28]  38
    x[2]      packing[31]  40
    x[2]      packing[32]  22
    x[2]      packing[33]  134
    x[2]      packing[35]  171
    x[2]      packing[38]  196
    x[2]      packing[39]  34
    x[2]      packing[40]  110
    x[2]      packing[41]  185
    x[2]      packing[42]  45
    x[2]      packing[43]  34
    x[2]      packing[45]  169
    x[2]      packing[47]  94
    x[2]      packing[49]  64
    x[3]      OBJ       163
    x[3]      packing[0]  80
    x[3]      packing[1]  138
    x[3]      packing[2]  89
    x[3]      packing[3]  30
    x[3]      packing[4]  142
    x[3]      packing[6]  177
    x[3]      packing[7]  190
    x[3]      packing[9]  70
    x[3]      packing[10]  31
    x[3]      packing[11]  171
    x[3]      packing[12]  46
    x[3]      packing[14]  28
    x[3]      packing[15]  168
    x[3]      packing[16]  189
    x[3]      packing[17]  159
    x[3]      packing[18]  168
    x[3]      packing[20]  163
    x[3]      packing[22]  171
    x[3]      packing[23]  162
    x[3]      packing[24]  72
    x[3]      packing[26]  51
    x[3]      packing[27]  1
    x[3]      packing[28]  187
    x[3]      packing[30]  19
    x[3]      packing[31]  57
    x[3]      packing[32]  40
    x[3]      packing[33]  179
    x[3]      packing[34]  152
    x[3]      packing[35]  66
    x[3]      packing[36]  174
    x[3]      packing[37]  152
    x[3]      packing[38]  148
    x[3]      packing[39]  19
    x[3]      packing[40]  120
    x[3]      packing[43]  23
    x[3]      packing[45]  90
    x[3]      packing[47]  128
    x[3]      packing[48]  40
    x[3]      packing[49]  149
    x[3]      R62       1
    x[4]      OBJ       162
    x[4]      packing[0]  14
    x[4]      packing[1]  150
    x[4]      packing[2]  102
    x[4]      packing[3]  39
    x[4]      packing[4]  138
    x[4]      packing[5]  85
    x[4]      packing[7]  55
    x[4]      packing[8]  184
    x[4]      packing[9]  145
    x[4]      packing[11]  3
    x[4]      packing[12]  138
    x[4]      packing[14]  196
    x[4]      packing[17]  24
    x[4]      packing[18]  164
    x[4]      packing[19]  20
    x[4]      packing[20]  87
    x[4]      packing[21]  179
    x[4]      packing[22]  137
    x[4]      packing[23]  3
    x[4]      packing[28]  86
    x[4]      packing[30]  146
    x[4]      packing[35]  74
    x[4]      packing[36]  22
    x[4]      packing[38]  75
    x[4]      packing[39]  49
    x[4]      packing[40]  58
    x[4]      packing[41]  21
    x[4]      packing[43]  38
    x[4]      packing[46]  132
    x[4]      packing[48]  55
    x[4]      packing[49]  152
    x[5]      OBJ       163
    x[5]      packing[0]  198
    x[5]      packing[2]  187
    x[5]      packing[3]  54
    x[5]      packing[4]  103
    x[5]      packing[5]  161
    x[5]      packing[8]  157
    x[5]      packing[9]  8
    x[5]      packing[11]  189
    x[5]      packing[12]  58
    x[5]      packing[13]  174
    x[5]      packing[14]  5
    x[5]      packing[15]  83
    x[5]      packing[16]  73
    x[5]      packing[17]  27
    x[5]      packing[18]  186
    x[5]      packing[19]  153
    x[5]      packing[20]  109
    x[5]      packing[21]  1
    x[5]      packing[22]  122
    x[5]      packing[26]  45
    x[5]      packing[27]  178
    x[5]      packing[30]  40
    x[5]      packing[31]  180
    x[5]      packing[32]  47
    x[5]      packing[34]  107
    x[5]      packing[35]  192
    x[5]      packing[38]  189
    x[5]      packing[39]  28
    x[5]      packing[41]  60
    x[5]      packing[42]  27
    x[5]      packing[43]  195
    x[5]      packing[46]  32
    x[5]      packing[47]  173
    x[5]      R62       1
    x[6]      OBJ       23
    x[6]      packing[2]  13
    x[6]      packing[3]  32
    x[6]      packing[5]  159
    x[6]      packing[6]  15
    x[6]      packing[7]  34
    x[6]      packing[8]  149
    x[6]      packing[9]  138
    x[6]      packing[10]  171
    x[6]      packing[11]  44
    x[6]      packing[13]  150
    x[6]      packing[14]  39
    x[6]      packing[19]  38
    x[6]      packing[20]  140
    x[6]      packing[22]  8
    x[6]      packing[24]  67
    x[6]      packing[25]  160
    x[6]      packing[28]  40
    x[6]      packing[29]  180
    x[6]      packing[30]  132
    x[6]      packing[34]  119
    x[6]      packing[35]  77
    x[6]      packing[36]  116
    x[6]      packing[37]  56
    x[6]      packing[38]  140
    x[6]      packing[39]  80
    x[6]      packing[40]  173
    x[6]      packing[41]  4
    x[6]      packing[42]  177
    x[6]      packing[43]  21
    x[6]      packing[45]  136
    x[6]      packing[46]  55
    x[6]      packing[48]  100
    x[6]      packing[49]  157
    x[7]      OBJ       57
    x[7]      packing[0]  44
    x[7]      packing[1]  103
    x[7]      packing[2]  121
    x[7]      packing[4]  148
    x[7]      packing[5]  106
    x[7]      packing[6]  89
    x[7]      packing[7]  193
    x[7]      packing[8]  17
    x[7]      packing[9]  74
    x[7]      packing[10]  12
    x[7]      packing[11]  73
    x[7]      packing[12]  2
    x[7]      packing[13]  14
    x[7]      packing[14]  69
    x[7]      packing[16]  185
    x[7]      packing[17]  110
    x[7]      packing[18]  143
    x[7]      packing[19]  86
    x[7]      packing[20]  121
    x[7]      packing[21]  99
    x[7]      packing[22]  18
    x[7]      packing[23]  141
    x[7]      packing[24]  55
    x[7]      packing[25]  30
    x[7]      packing[26]  8
    x[7]      packing[27]  190
    x[7]      packing[28]  151
    x[7]      packing[29]  38
    x[7]      packing[30]  118
    x[7]      packing[32]  22
    x[7]      packing[34]  140
    x[7]      packing[35]  162
    x[7]      packing[36]  66
    x[7]      packing[37]  130
    x[7]      packing[38]  84
    x[7]      packing[39]  165
    x[7]      packing[40]  1
    x[7]      packing[43]  106
    x[7]      packing[45]  5
    x[7]      packing[47]  124
    x[7]      packing[48]  56
    x[7]      packing[49]  91
    x[8]      OBJ       99
    x[8]      packing[2]  85
    x[8]      packing[5]  196
    x[8]      packing[6]  197
    x[8]      packing[7]  2
    x[8]      packing[8]  121
    x[8]      packing[9]  114
    x[8]      packing[11]  82
    x[8]      packing[12]  51
    x[8]      packing[13]  127
    x[8]      packing[14]  8
    x[8]      packing[16]  183
    x[8]      packing[18]  50
    x[8]      packing[19]  74
    x[8]      packing[21]  58
    x[8]      packing[22]  142
    x[8]      packing[23]  70
    x[8]      packing[24]  86
    x[8]      packing[25]  88
    x[8]      packing[26]  115
    x[8]      packing[27]  162
    x[8]      packing[28]  3
    x[8]      packing[29]  63
    x[8]      packing[30]  53
    x[8]      packing[31]  19
    x[8]      packing[32]  44
    x[8]      packing[33]  124
    x[8]      packing[34]  47
    x[8]      packing[36]  140
    x[8]      packing[38]  15
    x[8]      packing[39]  31
    x[8]      packing[41]  151
    x[8]      packing[43]  179
    x[8]      packing[44]  35
    x[8]      packing[45]  24
    x[8]      packing[46]  41
    x[8]      packing[48]  105
    x[8]      R62       1
    x[9]      OBJ       87
    x[9]      packing[3]  51
    x[9]      packing[5]  189
    x[9]      packing[6]  85
    x[9]      packing[7]  199
    x[9]      packing[8]  44
    x[9]      packing[9]  154
    x[9]      packing[10]  45
    x[9]      packing[11]  42
    x[9]      packing[12]  16
    x[9]      packing[14]  27
    x[9]      packing[15]  92
    x[9]      packing[16]  39
    x[9]      packing[17]  134
    x[9]      packing[18]  84
    x[9]      packing[20]  96
    x[9]      packing[21]  46
    x[9]      packing[25]  119
    x[9]      packing[26]  80
    x[9]      packing[28]  176
    x[9]      packing[29]  170
    x[9]      packing[31]  149
    x[9]      packing[32]  173
    x[9]      packing[33]  45
    x[9]      packing[34]  55
    x[9]      packing[35]  89
    x[9]      packing[36]  15
    x[9]      packing[37]  130
    x[9]      packing[38]  117
    x[9]      packing[39]  196
    x[9]      packing[40]  114
    x[9]      packing[41]  184
    x[9]      packing[43]  198
    x[9]      packing[44]  127
    x[9]      packing[45]  43
    x[9]      packing[46]  20
    x[9]      packing[48]  90
    x[9]      R62       1
    x[10]     OBJ       106
    x[10]     packing[0]  138
    x[10]     packing[1]  184
    x[10]     packing[2]  37
    x[10]     packing[3]  141
    x[10]     packing[4]  10
    x[10]     packing[5]  110
    x[10]     packing[6]  168
    x[10]     packing[7]  37
    x[10]     packing[9]  13
    x[10]     packing[12]  84
    x[10]     packing[13]  109
    x[10]     packing[17]  89
    x[10]     packing[18]  73
    x[10]     packing[19]  56
    x[10]     packing[20]  49
    x[10]     packing[21]  129
    x[10]     packing[22]  18
    x[10]     packing[24]  52
    x[10]     packing[25]  136
    x[10]     packing[26]  160
    x[10]     packing[27]  108
    x[10]     packing[28]  16
    x[10]     packing[29]  32
    x[10]     packing[32]  59
    x[10]     packing[33]  48
    x[10]     packing[35]  160
    x[10]     packing[37]  62
    x[10]     packing[39]  78
    x[10]     packing[43]  193
    x[10]     packing[45]  92
    x[10]     packing[47]  9
    x[10]     packing[48]  71
    x[10]     packing[49]  175
    x[11]     OBJ       189
    x[11]     packing[0]  154
    x[11]     packing[1]  128
    x[11]     packing[2]  152
    x[11]     packing[3]  83
    x[11]     packing[5]  166
    x[11]     packing[7]  51
    x[11]     packing[10]  36
    x[11]     packing[11]  37
    x[11]     packing[12]  115
    x[11]     packing[13]  75
    x[11]     packing[14]  131
    x[11]     packing[17]  31
    x[11]     packing[18]  145
    x[11]     packing[20]  54
    x[11]     packing[21]  81
    x[11]     packing[22]  42
    x[11]     packing[23]  35
    x[11]     packing[24]  27
    x[11]     packing[25]  173
    x[11]     packing[26]  5
    x[11]     packing[27]  190
    x[11]     packing[28]  140
    x[11]     packing[29]  135
    x[11]     packing[30]  22
    x[11]     packing[31]  73
    x[11]     packing[32]  40
    x[11]     packing[33]  169
    x[11]     packing[35]  14
    x[11]     packing[37]  174
    x[11]     packing[39]  185
    x[11]     packing[41]  136
    x[11]     packing[42]  154
    x[11]     packing[43]  102
    x[11]     packing[44]  157
    x[11]     packing[45]  17
    x[11]     packing[46]  139
    x[11]     packing[48]  46
    x[11]     R62       1
    x[12]     OBJ       100
    x[12]     packing[1]  156
    x[12]     packing[3]  6
    x[12]     packing[6]  99
    x[12]     packing[7]  51
    x[12]     packing[8]  155
    x[12]     packing[9]  68
    x[12]     packing[10]  198
    x[12]     packing[11]  191
    x[12]     packing[13]  140
    x[12]     packing[14]  141
    x[12]     packing[15]  29
    x[12]     packing[16]  100
    x[12]     packing[18]  169
    x[12]     packing[19]  68
    x[12]     packing[20]  10
    x[12]     packing[21]  4
    x[12]     packing[22]  126
    x[12]     packing[23]  198
    x[12]     packing[25]  78
    x[12]     packing[26]  153
    x[12]     packing[27]  129
    x[12]     packing[28]  19
    x[12]     packing[29]  132
    x[12]     packing[30]  117
    x[12]     packing[32]  36
    x[12]     packing[33]  179
    x[12]     packing[34]  129
    x[12]     packing[36]  42
    x[12]     packing[37]  177
    x[12]     packing[38]  13
    x[12]     packing[39]  7
    x[12]     packing[40]  177
    x[12]     packing[41]  110
    x[12]     packing[42]  100
    x[12]     packing[43]  68
    x[12]     packing[46]  39
    x[12]     packing[47]  175
    x[12]     packing[49]  81
    x[13]     OBJ       14
    x[13]     packing[0]  72
    x[13]     packing[1]  23
    x[13]     packing[2]  107
    x[13]     packing[3]  81
    x[13]     packing[4]  123
    x[13]     packing[5]  134
    x[13]     packing[6]  80
    x[13]     packing[7]  168
    x[13]     packing[8]  192
    x[13]     packing[9]  148
    x[13]     packing[10]  13
    x[13]     packing[11]  99
    x[13]     packing[12]  25
    x[13]     packing[14]  46
    x[13]     packing[16]  121
    x[13]     packing[18]  66
    x[13]     packing[19]  70
    x[13]     packing[22]  181
    x[13]     packing[24]  118
    x[13]     packing[25]  15
    x[13]     packing[26]  3
    x[13]     packing[28]  124
    x[13]     packing[29]  16
    x[13]     packing[31]  17
    x[13]     packing[33]  154
    x[13]     packing[35]  91
    x[13]     packing[37]  50
    x[13]     packing[38]  25
    x[13]     packing[40]  28
    x[13]     packing[42]  99
    x[13]     packing[44]  6
    x[13]     packing[45]  115
    x[13]     packing[46]  53
    x[13]     packing[47]  105
    x[13]     packing[48]  66
    x[13]     packing[49]  149
    x[14]     OBJ       106
    x[14]     packing[0]  22
    x[14]     packing[1]  51
    x[14]     packing[2]  27
    x[14]     packing[4]  75
    x[14]     packing[5]  74
    x[14]     packing[6]  32
    x[14]     packing[8]  17
    x[14]     packing[9]  96
    x[14]     packing[11]  28
    x[14]     packing[12]  61
    x[14]     packing[13]  189
    x[14]     packing[14]  131
    x[14]     packing[17]  41
    x[14]     packing[18]  127
    x[14]     packing[20]  64
    x[14]     packing[21]  15
    x[14]     packing[22]  72
    x[14]     packing[24]  96
    x[14]     packing[26]  54
    x[14]     packing[27]  155
    x[14]     packing[28]  176
    x[14]     packing[29]  27
    x[14]     packing[30]  28
    x[14]     packing[31]  189
    x[14]     packing[32]  79
    x[14]     packing[33]  103
    x[14]     packing[36]  92
    x[14]     packing[37]  31
    x[14]     packing[38]  68
    x[14]     packing[39]  121
    x[14]     packing[40]  9
    x[14]     packing[41]  186
    x[14]     packing[42]  38
    x[14]     packing[43]  131
    x[14]     packing[44]  27
    x[14]     packing[45]  187
    x[14]     packing[46]  155
    x[14]     packing[48]  8
    x[14]     packing[49]  179
    x[15]     OBJ       156
    x[15]     packing[1]  33
    x[15]     packing[3]  82
    x[15]     packing[4]  141
    x[15]     packing[5]  188
    x[15]     packing[6]  116
    x[15]     packing[7]  177
    x[15]     packing[8]  147
    x[15]     packing[9]  43
    x[15]     packing[10]  71
    x[15]     packing[11]  77
    x[15]     packing[13]  86
    x[15]     packing[14]  120
    x[15]     packing[16]  7
    x[15]     packing[18]  55
    x[15]     packing[19]  62
    x[15]     packing[21]  95
    x[15]     packing[22]  123
    x[15]     packing[23]  179
    x[15]     packing[24]  96
    x[15]     packing[28]  135
    x[15]     packing[29]  143
    x[15]     packing[30]  110
    x[15]     packing[31]  11
    x[15]     packing[32]  100
    x[15]     packing[33]  18
    x[15]     packing[34]  102
    x[15]     packing[35]  93
    x[15]     packing[37]  74
    x[15]     packing[39]  31
    x[15]     packing[40]  146
    x[15]     packing[41]  29
    x[15]     packing[42]  84
    x[15]     packing[43]  19
    x[15]     packing[44]  154
    x[15]     packing[46]  187
    x[15]     packing[47]  123
    x[15]     packing[48]  194
    x[15]     packing[49]  152
    x[15]     R62       1
    x[16]     OBJ       57
    x[16]     packing[0]  64
    x[16]     packing[2]  103
    x[16]     packing[3]  116
    x[16]     packing[5]  164
    x[16]     packing[6]  106
    x[16]     packing[7]  68
    x[16]     packing[8]  161
    x[16]     packing[9]  63
    x[16]     packing[11]  18
    x[16]     packing[12]  123
    x[16]     packing[13]  169
    x[16]     packing[14]  137
    x[16]     packing[16]  105
    x[16]     packing[17]  179
    x[16]     packing[18]  38
    x[16]     packing[19]  23
    x[16]     packing[20]  70
    x[16]     packing[21]  55
    x[16]     packing[22]  21
    x[16]     packing[24]  9
    x[16]     packing[25]  144
    x[16]     packing[27]  186
    x[16]     packing[28]  144
    x[16]     packing[29]  100
    x[16]     packing[33]  191
    x[16]     packing[34]  101
    x[16]     packing[35]  20
    x[16]     packing[36]  67
    x[16]     packing[37]  105
    x[16]     packing[38]  180
    x[16]     packing[41]  20
    x[16]     packing[42]  112
    x[16]     packing[43]  133
    x[16]     packing[44]  137
    x[16]     packing[45]  32
    x[16]     packing[46]  103
    x[16]     packing[47]  139
    x[16]     packing[48]  42
    x[17]     OBJ       146
    x[17]     packing[0]  103
    x[17]     packing[1]  194
    x[17]     packing[3]  39
    x[17]     packing[4]  112
    x[17]     packing[5]  100
    x[17]     packing[6]  175
    x[17]     packing[7]  22
    x[17]     packing[9]  154
    x[17]     packing[10]  138
    x[17]     packing[11]  151
    x[17]     packing[12]  63
    x[17]     packing[14]  5
    x[17]     packing[15]  109
    x[17]     packing[16]  83
    x[17]     packing[17]  151
    x[17]     packing[18]  176
    x[17]     packing[19]  169
    x[17]     packing[20]  166
    x[17]     packing[21]  196
    x[17]     packing[22]  169
    x[17]     packing[24]  194
    x[17]     packing[25]  127
    x[17]     packing[26]  50
    x[17]     packing[27]  173
    x[17]     packing[28]  84
    x[17]     packing[29]  42
    x[17]     packing[31]  137
    x[17]     packing[32]  130
    x[17]     packing[33]  120
    x[17]     packing[35]  17
    x[17]     packing[37]  166
    x[17]     packing[38]  48
    x[17]     packing[39]  7
    x[17]     packing[40]  69
    x[17]     packing[41]  84
    x[17]     packing[42]  47
    x[17]     packing[44]  180
    x[17]     packing[45]  18
    x[17]     packing[46]  55
    x[17]     packing[48]  191
    x[17]     packing[49]  102
    x[18]     OBJ       46
    x[18]     packing[0]  59
    x[18]     packing[1]  106
    x[18]     packing[4]  84
    x[18]     packing[5]  92
    x[18]     packing[6]  144
    x[18]     packing[7]  146
    x[18]     packing[8]  71
    x[18]     packing[9]  80
    x[18]     packing[10]  67
    x[18]     packing[11]  124
    x[18]     packing[12]  14
    x[18]     packing[13]  163
    x[18]     packing[14]  30
    x[18]     packing[15]  140
    x[18]     packing[16]  98
    x[18]     packing[19]  89
    x[18]     packing[20]  165
    x[18]     packing[22]  141
    x[18]     packing[23]  89
    x[18]     packing[24]  148
    x[18]     packing[25]  146
    x[18]     packing[27]  163
    x[18]     packing[28]  136
    x[18]     packing[29]  48
    x[18]     packing[30]  121
    x[18]     packing[32]  84
    x[18]     packing[33]  63
    x[18]     packing[34]  177
    x[18]     packing[35]  134
    x[18]     packing[36]  115
    x[18]     packing[37]  74
    x[18]     packing[38]  15
    x[18]     packing[39]  40
    x[18]     packing[40]  100
    x[18]     packing[41]  168
    x[18]     packing[42]  20
    x[18]     packing[43]  51
    x[18]     packing[45]  14
    x[18]     packing[46]  16
    x[18]     packing[47]  73
    x[19]     OBJ       75
    x[19]     packing[1]  84
    x[19]     packing[2]  59
    x[19]     packing[3]  113
    x[19]     packing[4]  118
    x[19]     packing[5]  174
    x[19]     packing[6]  183
    x[19]     packing[7]  61
    x[19]     packing[9]  197
    x[19]     packing[10]  161
    x[19]     packing[11]  199
    x[19]     packing[12]  39
    x[19]     packing[14]  153
    x[19]     packing[15]  134
    x[19]     packing[17]  96
    x[19]     packing[18]  198
    x[19]     packing[19]  18
    x[19]     packing[20]  154
    x[19]     packing[22]  166
    x[19]     packing[24]  90
    x[19]     packing[25]  147
    x[19]     packing[27]  137
    x[19]     packing[28]  146
    x[19]     packing[29]  96
    x[19]     packing[30]  111
    x[19]     packing[32]  59
    x[19]     packing[33]  53
    x[19]     packing[34]  133
    x[19]     packing[36]  35
    x[19]     packing[38]  184
    x[19]     packing[39]  33
    x[19]     packing[40]  151
    x[19]     packing[42]  150
    x[19]     packing[43]  3
    x[19]     packing[44]  106
    x[19]     packing[45]  21
    x[19]     packing[46]  60
    x[19]     packing[47]  169
    x[19]     packing[49]  96
    x[20]     OBJ       103
    x[20]     packing[0]  127
    x[20]     packing[1]  175
    x[20]     packing[3]  118
    x[20]     packing[4]  61
    x[20]     packing[5]  101
    x[20]     packing[6]  45
    x[20]     packing[7]  65
    x[20]     packing[9]  23
    x[20]     packing[10]  6
    x[20]     packing[12]  194
    x[20]     packing[14]  9
    x[20]     packing[15]  190
    x[20]     packing[16]  132
    x[20]     packing[17]  133
    x[20]     packing[18]  118
    x[20]     packing[19]  195
    x[20]     packing[20]  99
    x[20]     packing[23]  169
    x[20]     packing[25]  71
    x[20]     packing[27]  99
    x[20]     packing[29]  5
    x[20]     packing[30]  146
    x[20]     packing[31]  52
    x[20]     packing[32]  61
    x[20]     packing[33]  81
    x[20]     packing[34]  115
    x[20]     packing[37]  67
    x[20]     packing[39]  187
    x[20]     packing[41]  9
    x[20]     packing[43]  44
    x[20]     packing[44]  162
    x[20]     packing[45]  13
    x[20]     packing[46]  172
    x[20]     packing[47]  26
    x[20]     packing[48]  187
    x[20]     packing[49]  104
    x[20]     R62       1
    MARKER    'MARKER'                 'INTEND'
RHS
    RHS1      packing[0]  635
    RHS1      packing[1]  774
    RHS1      packing[2]  657
    RHS1      packing[3]  603
    RHS1      packing[4]  696
    RHS1      packing[5]  1284
    RHS1      packing[6]  976
    RHS1      packing[7]  835
    RHS1      packing[8]  737
    RHS1      packing[9]  904
    RHS1      packing[10]  610
    RHS1      packing[11]  920
    RHS1      packing[12]  584
    RHS1      packing[13]  830
    RHS1      packing[14]  718
    RHS1      packing[15]  524
    RHS1      packing[16]  669
    RHS1      packing[17]  700
    RHS1      packing[18]  1101
    RHS1      packing[19]  585
    RHS1      packing[20]  865
    RHS1      packing[21]  505
    RHS1      packing[22]  920
    RHS1      packing[23]  684
    RHS1      packing[24]  597
    RHS1      packing[25]  866
    RHS1      packing[26]  439
    RHS1      packing[27]  969
    RHS1      packing[28]  933
    RHS1      packing[29]  663
    RHS1      packing[30]  646
    RHS1      packing[31]  531
    RHS1      packing[32]  498
    RHS1      packing[33]  919
    RHS1      packing[34]  760
    RHS1      packing[35]  726
    RHS1      packing[36]  536
    RHS1      packing[37]  763
    RHS1      packing[38]  762
    RHS1      packing[39]  646
    RHS1      packing[40]  638
    RHS1      packing[41]  728
    RHS1      packing[42]  549
    RHS1      packing[43]  867
    RHS1      packing[44]  626
    RHS1      packing[45]  560
    RHS1      packing[46]  707
    RHS1      packing[47]  669
    RHS1      packing[48]  693
    RHS1      packing[49]  855
    RHS1      R62       6
BOUNDS
 BV BND1      x[1]    
 BV BND1      x[2]    
 BV BND1      x[3]    
 BV BND1      x[4]    
 BV BND1      x[5]    
 BV BND1      x[6]    
 BV BND1      x[7]    
 BV BND1      x[8]    
 BV BND1      x[9]    
 BV BND1      x[10]   
 BV BND1      x[11]   
 BV BND1      x[12]   
 BV BND1      x[13]   
 BV BND1      x[14]   
 BV BND1      x[15]   
 BV BND1      x[16]   
 BV BND1      x[17]   
 BV BND1      x[18]   
 BV BND1      x[19]   
 BV BND1      x[20]   
ENDATA
